;; sequence(s): A135276
;; terms: 0 1 3 4 8 9 15 16 24 25 35 36 48 49 63 64 80 81 99 100
;; small program: ((x div 2) * (x div 2)) + x
;; fast program: loop(x * x, 1, x div 2) + x
(set-logic UFNIA)
(declare-fun small (Int) Int)
(declare-fun f0 (Int) Int)
(declare-fun g0 () Int)
(declare-fun h0 (Int) Int)
(declare-fun u0 (Int Int) Int)
(declare-fun v0 (Int) Int)
(declare-fun fast (Int) Int)
(assert (forall ((x Int)) (= (small x) (+ (* (div x 2) (div x 2)) x))))
(assert (forall ((x Int)) (= (f0 x) (* x x))))
(assert (= g0 1))
(assert (forall ((x Int)) (= (h0 x) (div x 2))))
(assert (forall ((x Int) (y Int)) (= (u0 x y) (ite (<= x 0) y (f0 (u0 (- x 1) y))))))
(assert (forall ((x Int)) (= (v0 x) (u0 g0 (h0 x)))))
(assert (forall ((x Int)) (= (fast x) (+ (v0 x) x))))
(assert (exists ((c Int)) (and (>= c 0) (not (= (small c) (fast c))))))
(check-sat)
